p cnf 393 1466
c input variables 24
c output variables 1
c literals 4302
-25 3 0
25 -3 6 0
-25 -6 0
-26 2 0
26 -2 3 5 6 0
-26 3 -6 0
-26 -5 0
26 -2 -3 5 -6 0
-26 -3 6 0
27 -26 0
-27 25 26 0
27 -25 0
-28 1 0
28 -1 3 4 6 0
-28 3 -6 0
-28 -4 0
28 -1 -3 4 -6 0
-28 -3 6 0
29 2 5 -28 0
-29 28 0
-29 2 -5 0
-29 -2 5 0
29 -2 -5 -28 0
30 -29 0
-30 27 29 0
30 -27 0
31 -1 30 0
31 -4 -30 0
-31 1 30 0
-31 4 -30 0
32 -2 30 0
32 -5 -30 0
-32 2 30 0
-32 5 -30 0
33 -3 30 0
33 -6 -30 0
-33 3 30 0
-33 6 -30 0
34 -4 30 0
34 -1 -30 0
-34 4 30 0
-34 1 -30 0
35 -5 30 0
35 -2 -30 0
-35 5 30 0
-35 2 -30 0
36 -6 30 0
36 -3 -30 0
-36 6 30 0
-36 3 -30 0
37 9 -36 0
-37 36 0
-37 -9 0
-38 35 0
38 8 9 -35 36 0
-38 9 -36 0
38 8 -9 -35 -36 0
-38 -9 36 0
-38 -8 0
39 -38 0
-39 37 38 0
39 -37 0
-40 34 0
40 7 9 -34 36 0
-40 9 -36 0
40 7 -9 -34 -36 0
-40 -9 36 0
-40 -7 0
41 8 35 -40 0
-41 40 0
-41 8 -35 0
-41 -8 35 0
41 -8 -35 -40 0
42 -41 0
-42 39 41 0
42 -39 0
43 -34 42 0
43 -7 -42 0
-43 34 42 0
-43 7 -42 0
44 -35 42 0
44 -8 -42 0
-44 35 42 0
-44 8 -42 0
45 -36 42 0
45 -9 -42 0
-45 36 42 0
-45 9 -42 0
46 -7 42 0
46 -34 -42 0
-46 7 42 0
-46 34 -42 0
47 -8 42 0
47 -35 -42 0
-47 8 42 0
-47 35 -42 0
48 -9 42 0
48 -36 -42 0
-48 9 42 0
-48 36 -42 0
49 12 -48 0
-49 48 0
-49 -12 0
-50 47 0
50 11 12 -47 48 0
-50 12 -48 0
50 11 -12 -47 -48 0
-50 -12 48 0
-50 -11 0
51 -50 0
-51 49 50 0
51 -49 0
-52 46 0
52 10 12 -46 48 0
-52 12 -48 0
52 10 -12 -46 -48 0
-52 -12 48 0
-52 -10 0
53 11 47 -52 0
-53 52 0
-53 11 -47 0
-53 -11 47 0
53 -11 -47 -52 0
54 -53 0
-54 51 53 0
54 -51 0
55 -46 54 0
55 -10 -54 0
-55 46 54 0
-55 10 -54 0
56 -47 54 0
56 -11 -54 0
-56 47 54 0
-56 11 -54 0
57 -48 54 0
57 -12 -54 0
-57 48 54 0
-57 12 -54 0
58 -10 54 0
58 -46 -54 0
-58 10 54 0
-58 46 -54 0
59 -11 54 0
59 -47 -54 0
-59 11 54 0
-59 47 -54 0
60 -12 54 0
60 -48 -54 0
-60 12 54 0
-60 48 -54 0
61 15 -60 0
-61 60 0
-61 -15 0
-62 59 0
62 14 15 -59 60 0
-62 15 -60 0
62 14 -15 -59 -60 0
-62 -15 60 0
-62 -14 0
63 -62 0
-63 61 62 0
63 -61 0
-64 58 0
64 13 15 -58 60 0
-64 15 -60 0
64 13 -15 -58 -60 0
-64 -15 60 0
-64 -13 0
65 14 59 -64 0
-65 64 0
-65 14 -59 0
-65 -14 59 0
65 -14 -59 -64 0
66 -65 0
-66 63 65 0
66 -63 0
67 -58 66 0
67 -13 -66 0
-67 58 66 0
-67 13 -66 0
68 -59 66 0
68 -14 -66 0
-68 59 66 0
-68 14 -66 0
69 -60 66 0
69 -15 -66 0
-69 60 66 0
-69 15 -66 0
70 -13 66 0
70 -58 -66 0
-70 13 66 0
-70 58 -66 0
71 -14 66 0
71 -59 -66 0
-71 14 66 0
-71 59 -66 0
72 -15 66 0
72 -60 -66 0
-72 15 66 0
-72 60 -66 0
73 18 -72 0
-73 72 0
-73 -18 0
-74 71 0
74 17 18 -71 72 0
-74 18 -72 0
74 17 -18 -71 -72 0
-74 -18 72 0
-74 -17 0
75 -74 0
-75 73 74 0
75 -73 0
-76 70 0
76 16 18 -70 72 0
-76 18 -72 0
76 16 -18 -70 -72 0
-76 -18 72 0
-76 -16 0
77 17 71 -76 0
-77 76 0
-77 17 -71 0
-77 -17 71 0
77 -17 -71 -76 0
78 -77 0
-78 75 77 0
78 -75 0
79 -70 78 0
79 -16 -78 0
-79 70 78 0
-79 16 -78 0
80 -71 78 0
80 -17 -78 0
-80 71 78 0
-80 17 -78 0
81 -72 78 0
81 -18 -78 0
-81 72 78 0
-81 18 -78 0
82 -16 78 0
82 -70 -78 0
-82 16 78 0
-82 70 -78 0
83 -17 78 0
83 -71 -78 0
-83 17 78 0
-83 71 -78 0
84 -18 78 0
84 -72 -78 0
-84 18 78 0
-84 72 -78 0
85 21 -84 0
-85 84 0
-85 -21 0
-86 83 0
86 20 21 -83 84 0
-86 21 -84 0
86 20 -21 -83 -84 0
-86 -21 84 0
-86 -20 0
87 -86 0
-87 85 86 0
87 -85 0
-88 82 0
88 19 21 -82 84 0
-88 21 -84 0
88 19 -21 -82 -84 0
-88 -21 84 0
-88 -19 0
89 20 83 -88 0
-89 88 0
-89 20 -83 0
-89 -20 83 0
89 -20 -83 -88 0
90 -89 0
-90 87 89 0
90 -87 0
91 -82 90 0
91 -19 -90 0
-91 82 90 0
-91 19 -90 0
92 -83 90 0
92 -20 -90 0
-92 83 90 0
-92 20 -90 0
93 -84 90 0
93 -21 -90 0
-93 84 90 0
-93 21 -90 0
94 -19 90 0
94 -82 -90 0
-94 19 90 0
-94 82 -90 0
95 -20 90 0
95 -83 -90 0
-95 20 90 0
-95 83 -90 0
96 -21 90 0
96 -84 -90 0
-96 21 90 0
-96 84 -90 0
97 24 -96 0
-97 96 0
-97 -24 0
-98 95 0
98 23 24 -95 96 0
-98 24 -96 0
98 23 -24 -95 -96 0
-98 -24 96 0
-98 -23 0
99 -98 0
-99 97 98 0
99 -97 0
-100 94 0
100 22 24 -94 96 0
-100 24 -96 0
100 22 -24 -94 -96 0
-100 -24 96 0
-100 -22 0
101 23 95 -100 0
-101 100 0
-101 23 -95 0
-101 -23 95 0
101 -23 -95 -100 0
102 -101 0
-102 99 101 0
102 -99 0
103 -94 102 0
103 -22 -102 0
-103 94 102 0
-103 22 -102 0
104 -95 102 0
104 -23 -102 0
-104 95 102 0
-104 23 -102 0
105 -96 102 0
105 -24 -102 0
-105 96 102 0
-105 24 -102 0
106 -22 102 0
106 -94 -102 0
-106 22 102 0
-106 94 -102 0
107 -23 102 0
107 -95 -102 0
-107 23 102 0
-107 95 -102 0
108 -24 102 0
108 -96 -102 0
-108 24 102 0
-108 96 -102 0
-109 33 0
109 -33 45 0
-109 -45 0
-110 32 0
110 -32 33 44 45 0
-110 33 -45 0
-110 -44 0
110 -32 -33 44 -45 0
-110 -33 45 0
111 -110 0
-111 109 110 0
111 -109 0
-112 31 0
112 -31 33 43 45 0
-112 33 -45 0
-112 -43 0
112 -31 -33 43 -45 0
-112 -33 45 0
113 32 44 -112 0
-113 112 0
-113 32 -44 0
-113 -32 44 0
113 -32 -44 -112 0
114 -113 0
-114 111 113 0
114 -111 0
115 -31 114 0
115 -43 -114 0
-115 31 114 0
-115 43 -114 0
116 -32 114 0
116 -44 -114 0
-116 32 114 0
-116 44 -114 0
117 -33 114 0
117 -45 -114 0
-117 33 114 0
-117 45 -114 0
118 -43 114 0
118 -31 -114 0
-118 43 114 0
-118 31 -114 0
119 -44 114 0
119 -32 -114 0
-119 44 114 0
-119 32 -114 0
120 -45 114 0
120 -33 -114 0
-120 45 114 0
-120 33 -114 0
121 57 -120 0
-121 120 0
-121 -57 0
-122 119 0
122 56 57 -119 120 0
-122 57 -120 0
122 56 -57 -119 -120 0
-122 -57 120 0
-122 -56 0
123 -122 0
-123 121 122 0
123 -121 0
-124 118 0
124 55 57 -118 120 0
-124 57 -120 0
124 55 -57 -118 -120 0
-124 -57 120 0
-124 -55 0
125 56 119 -124 0
-125 124 0
-125 56 -119 0
-125 -56 119 0
125 -56 -119 -124 0
126 -125 0
-126 123 125 0
126 -123 0
127 -118 126 0
127 -55 -126 0
-127 118 126 0
-127 55 -126 0
128 -119 126 0
128 -56 -126 0
-128 119 126 0
-128 56 -126 0
129 -120 126 0
129 -57 -126 0
-129 120 126 0
-129 57 -126 0
130 -55 126 0
130 -118 -126 0
-130 55 126 0
-130 118 -126 0
131 -56 126 0
131 -119 -126 0
-131 56 126 0
-131 119 -126 0
132 -57 126 0
132 -120 -126 0
-132 57 126 0
-132 120 -126 0
133 69 -132 0
-133 132 0
-133 -69 0
-134 131 0
134 68 69 -131 132 0
-134 69 -132 0
134 68 -69 -131 -132 0
-134 -69 132 0
-134 -68 0
135 -134 0
-135 133 134 0
135 -133 0
-136 130 0
136 67 69 -130 132 0
-136 69 -132 0
136 67 -69 -130 -132 0
-136 -69 132 0
-136 -67 0
137 68 131 -136 0
-137 136 0
-137 68 -131 0
-137 -68 131 0
137 -68 -131 -136 0
138 -137 0
-138 135 137 0
138 -135 0
139 -130 138 0
139 -67 -138 0
-139 130 138 0
-139 67 -138 0
140 -131 138 0
140 -68 -138 0
-140 131 138 0
-140 68 -138 0
141 -132 138 0
141 -69 -138 0
-141 132 138 0
-141 69 -138 0
142 -67 138 0
142 -130 -138 0
-142 67 138 0
-142 130 -138 0
143 -68 138 0
143 -131 -138 0
-143 68 138 0
-143 131 -138 0
144 -69 138 0
144 -132 -138 0
-144 69 138 0
-144 132 -138 0
145 81 -144 0
-145 144 0
-145 -81 0
-146 143 0
146 80 81 -143 144 0
-146 81 -144 0
146 80 -81 -143 -144 0
-146 -81 144 0
-146 -80 0
147 -146 0
-147 145 146 0
147 -145 0
-148 142 0
148 79 81 -142 144 0
-148 81 -144 0
148 79 -81 -142 -144 0
-148 -81 144 0
-148 -79 0
149 80 143 -148 0
-149 148 0
-149 80 -143 0
-149 -80 143 0
149 -80 -143 -148 0
150 -149 0
-150 147 149 0
150 -147 0
151 -142 150 0
151 -79 -150 0
-151 142 150 0
-151 79 -150 0
152 -143 150 0
152 -80 -150 0
-152 143 150 0
-152 80 -150 0
153 -144 150 0
153 -81 -150 0
-153 144 150 0
-153 81 -150 0
154 -79 150 0
154 -142 -150 0
-154 79 150 0
-154 142 -150 0
155 -80 150 0
155 -143 -150 0
-155 80 150 0
-155 143 -150 0
156 -81 150 0
156 -144 -150 0
-156 81 150 0
-156 144 -150 0
157 93 -156 0
-157 156 0
-157 -93 0
-158 155 0
158 92 93 -155 156 0
-158 93 -156 0
158 92 -93 -155 -156 0
-158 -93 156 0
-158 -92 0
159 -158 0
-159 157 158 0
159 -157 0
-160 154 0
160 91 93 -154 156 0
-160 93 -156 0
160 91 -93 -154 -156 0
-160 -93 156 0
-160 -91 0
161 92 155 -160 0
-161 160 0
-161 92 -155 0
-161 -92 155 0
161 -92 -155 -160 0
162 -161 0
-162 159 161 0
162 -159 0
163 -154 162 0
163 -91 -162 0
-163 154 162 0
-163 91 -162 0
164 -155 162 0
164 -92 -162 0
-164 155 162 0
-164 92 -162 0
165 -156 162 0
165 -93 -162 0
-165 156 162 0
-165 93 -162 0
166 -91 162 0
166 -154 -162 0
-166 91 162 0
-166 154 -162 0
167 -92 162 0
167 -155 -162 0
-167 92 162 0
-167 155 -162 0
168 -93 162 0
168 -156 -162 0
-168 93 162 0
-168 156 -162 0
169 105 -168 0
-169 168 0
-169 -105 0
-170 167 0
170 104 105 -167 168 0
-170 105 -168 0
170 104 -105 -167 -168 0
-170 -105 168 0
-170 -104 0
171 -170 0
-171 169 170 0
171 -169 0
-172 166 0
172 103 105 -166 168 0
-172 105 -168 0
172 103 -105 -166 -168 0
-172 -105 168 0
-172 -103 0
173 104 167 -172 0
-173 172 0
-173 104 -167 0
-173 -104 167 0
173 -104 -167 -172 0
174 -173 0
-174 171 173 0
174 -171 0
175 -166 174 0
175 -103 -174 0
-175 166 174 0
-175 103 -174 0
176 -167 174 0
176 -104 -174 0
-176 167 174 0
-176 104 -174 0
177 -168 174 0
177 -105 -174 0
-177 168 174 0
-177 105 -174 0
178 -103 174 0
178 -166 -174 0
-178 103 174 0
-178 166 -174 0
179 -104 174 0
179 -167 -174 0
-179 104 174 0
-179 167 -174 0
180 -105 174 0
180 -168 -174 0
-180 105 174 0
-180 168 -174 0
-181 117 0
181 -117 129 0
-181 -129 0
-182 116 0
182 -116 117 128 129 0
-182 117 -129 0
-182 -128 0
182 -116 -117 128 -129 0
-182 -117 129 0
183 -182 0
-183 181 182 0
183 -181 0
-184 115 0
184 -115 117 127 129 0
-184 117 -129 0
-184 -127 0
184 -115 -117 127 -129 0
-184 -117 129 0
185 116 128 -184 0
-185 184 0
-185 116 -128 0
-185 -116 128 0
185 -116 -128 -184 0
186 -185 0
-186 183 185 0
186 -183 0
187 -115 186 0
187 -127 -186 0
-187 115 186 0
-187 127 -186 0
188 -116 186 0
188 -128 -186 0
-188 116 186 0
-188 128 -186 0
189 -117 186 0
189 -129 -186 0
-189 117 186 0
-189 129 -186 0
190 -127 186 0
190 -115 -186 0
-190 127 186 0
-190 115 -186 0
191 -128 186 0
191 -116 -186 0
-191 128 186 0
-191 116 -186 0
192 -129 186 0
192 -117 -186 0
-192 129 186 0
-192 117 -186 0
193 141 -192 0
-193 192 0
-193 -141 0
-194 191 0
194 140 141 -191 192 0
-194 141 -192 0
194 140 -141 -191 -192 0
-194 -141 192 0
-194 -140 0
195 -194 0
-195 193 194 0
195 -193 0
-196 190 0
196 139 141 -190 192 0
-196 141 -192 0
196 139 -141 -190 -192 0
-196 -141 192 0
-196 -139 0
197 140 191 -196 0
-197 196 0
-197 140 -191 0
-197 -140 191 0
197 -140 -191 -196 0
198 -197 0
-198 195 197 0
198 -195 0
199 -190 198 0
199 -139 -198 0
-199 190 198 0
-199 139 -198 0
200 -191 198 0
200 -140 -198 0
-200 191 198 0
-200 140 -198 0
201 -192 198 0
201 -141 -198 0
-201 192 198 0
-201 141 -198 0
202 -139 198 0
202 -190 -198 0
-202 139 198 0
-202 190 -198 0
203 -140 198 0
203 -191 -198 0
-203 140 198 0
-203 191 -198 0
204 -141 198 0
204 -192 -198 0
-204 141 198 0
-204 192 -198 0
205 153 -204 0
-205 204 0
-205 -153 0
-206 203 0
206 152 153 -203 204 0
-206 153 -204 0
206 152 -153 -203 -204 0
-206 -153 204 0
-206 -152 0
207 -206 0
-207 205 206 0
207 -205 0
-208 202 0
208 151 153 -202 204 0
-208 153 -204 0
208 151 -153 -202 -204 0
-208 -153 204 0
-208 -151 0
209 152 203 -208 0
-209 208 0
-209 152 -203 0
-209 -152 203 0
209 -152 -203 -208 0
210 -209 0
-210 207 209 0
210 -207 0
211 -202 210 0
211 -151 -210 0
-211 202 210 0
-211 151 -210 0
212 -203 210 0
212 -152 -210 0
-212 203 210 0
-212 152 -210 0
213 -204 210 0
213 -153 -210 0
-213 204 210 0
-213 153 -210 0
214 -151 210 0
214 -202 -210 0
-214 151 210 0
-214 202 -210 0
215 -152 210 0
215 -203 -210 0
-215 152 210 0
-215 203 -210 0
216 -153 210 0
216 -204 -210 0
-216 153 210 0
-216 204 -210 0
217 165 -216 0
-217 216 0
-217 -165 0
-218 215 0
218 164 165 -215 216 0
-218 165 -216 0
218 164 -165 -215 -216 0
-218 -165 216 0
-218 -164 0
219 -218 0
-219 217 218 0
219 -217 0
-220 214 0
220 163 165 -214 216 0
-220 165 -216 0
220 163 -165 -214 -216 0
-220 -165 216 0
-220 -163 0
221 164 215 -220 0
-221 220 0
-221 164 -215 0
-221 -164 215 0
221 -164 -215 -220 0
222 -221 0
-222 219 221 0
222 -219 0
223 -214 222 0
223 -163 -222 0
-223 214 222 0
-223 163 -222 0
224 -215 222 0
224 -164 -222 0
-224 215 222 0
-224 164 -222 0
225 -216 222 0
225 -165 -222 0
-225 216 222 0
-225 165 -222 0
226 -163 222 0
226 -214 -222 0
-226 163 222 0
-226 214 -222 0
227 -164 222 0
227 -215 -222 0
-227 164 222 0
-227 215 -222 0
228 -165 222 0
228 -216 -222 0
-228 165 222 0
-228 216 -222 0
229 177 -228 0
-229 228 0
-229 -177 0
-230 227 0
230 176 177 -227 228 0
-230 177 -228 0
230 176 -177 -227 -228 0
-230 -177 228 0
-230 -176 0
231 -230 0
-231 229 230 0
231 -229 0
-232 226 0
232 175 177 -226 228 0
-232 177 -228 0
232 175 -177 -226 -228 0
-232 -177 228 0
-232 -175 0
233 176 227 -232 0
-233 232 0
-233 176 -227 0
-233 -176 227 0
233 -176 -227 -232 0
234 -233 0
-234 231 233 0
234 -231 0
235 -226 234 0
235 -175 -234 0
-235 226 234 0
-235 175 -234 0
236 -227 234 0
236 -176 -234 0
-236 227 234 0
-236 176 -234 0
237 -228 234 0
237 -177 -234 0
-237 228 234 0
-237 177 -234 0
238 -175 234 0
238 -226 -234 0
-238 175 234 0
-238 226 -234 0
239 -176 234 0
239 -227 -234 0
-239 176 234 0
-239 227 -234 0
240 -177 234 0
240 -228 -234 0
-240 177 234 0
-240 228 -234 0
-241 189 0
241 -189 201 0
-241 -201 0
-242 188 0
242 -188 189 200 201 0
-242 189 -201 0
-242 -200 0
242 -188 -189 200 -201 0
-242 -189 201 0
243 -242 0
-243 241 242 0
243 -241 0
-244 187 0
244 -187 189 199 201 0
-244 189 -201 0
-244 -199 0
244 -187 -189 199 -201 0
-244 -189 201 0
245 188 200 -244 0
-245 244 0
-245 188 -200 0
-245 -188 200 0
245 -188 -200 -244 0
246 -245 0
-246 243 245 0
246 -243 0
247 -187 246 0
247 -199 -246 0
-247 187 246 0
-247 199 -246 0
248 -188 246 0
248 -200 -246 0
-248 188 246 0
-248 200 -246 0
249 -189 246 0
249 -201 -246 0
-249 189 246 0
-249 201 -246 0
250 -199 246 0
250 -187 -246 0
-250 199 246 0
-250 187 -246 0
251 -200 246 0
251 -188 -246 0
-251 200 246 0
-251 188 -246 0
252 -201 246 0
252 -189 -246 0
-252 201 246 0
-252 189 -246 0
253 213 -252 0
-253 252 0
-253 -213 0
-254 251 0
254 212 213 -251 252 0
-254 213 -252 0
254 212 -213 -251 -252 0
-254 -213 252 0
-254 -212 0
255 -254 0
-255 253 254 0
255 -253 0
-256 250 0
256 211 213 -250 252 0
-256 213 -252 0
256 211 -213 -250 -252 0
-256 -213 252 0
-256 -211 0
257 212 251 -256 0
-257 256 0
-257 212 -251 0
-257 -212 251 0
257 -212 -251 -256 0
258 -257 0
-258 255 257 0
258 -255 0
259 -250 258 0
259 -211 -258 0
-259 250 258 0
-259 211 -258 0
260 -251 258 0
260 -212 -258 0
-260 251 258 0
-260 212 -258 0
261 -252 258 0
261 -213 -258 0
-261 252 258 0
-261 213 -258 0
262 -211 258 0
262 -250 -258 0
-262 211 258 0
-262 250 -258 0
263 -212 258 0
263 -251 -258 0
-263 212 258 0
-263 251 -258 0
264 -213 258 0
264 -252 -258 0
-264 213 258 0
-264 252 -258 0
265 225 -264 0
-265 264 0
-265 -225 0
-266 263 0
266 224 225 -263 264 0
-266 225 -264 0
266 224 -225 -263 -264 0
-266 -225 264 0
-266 -224 0
267 -266 0
-267 265 266 0
267 -265 0
-268 262 0
268 223 225 -262 264 0
-268 225 -264 0
268 223 -225 -262 -264 0
-268 -225 264 0
-268 -223 0
269 224 263 -268 0
-269 268 0
-269 224 -263 0
-269 -224 263 0
269 -224 -263 -268 0
270 -269 0
-270 267 269 0
270 -267 0
271 -262 270 0
271 -223 -270 0
-271 262 270 0
-271 223 -270 0
272 -263 270 0
272 -224 -270 0
-272 263 270 0
-272 224 -270 0
273 -264 270 0
273 -225 -270 0
-273 264 270 0
-273 225 -270 0
274 -223 270 0
274 -262 -270 0
-274 223 270 0
-274 262 -270 0
275 -224 270 0
275 -263 -270 0
-275 224 270 0
-275 263 -270 0
276 -225 270 0
276 -264 -270 0
-276 225 270 0
-276 264 -270 0
277 237 -276 0
-277 276 0
-277 -237 0
-278 275 0
278 236 237 -275 276 0
-278 237 -276 0
278 236 -237 -275 -276 0
-278 -237 276 0
-278 -236 0
279 -278 0
-279 277 278 0
279 -277 0
-280 274 0
280 235 237 -274 276 0
-280 237 -276 0
280 235 -237 -274 -276 0
-280 -237 276 0
-280 -235 0
281 236 275 -280 0
-281 280 0
-281 236 -275 0
-281 -236 275 0
281 -236 -275 -280 0
282 -281 0
-282 279 281 0
282 -279 0
283 -274 282 0
283 -235 -282 0
-283 274 282 0
-283 235 -282 0
284 -275 282 0
284 -236 -282 0
-284 275 282 0
-284 236 -282 0
285 -276 282 0
285 -237 -282 0
-285 276 282 0
-285 237 -282 0
286 -235 282 0
286 -274 -282 0
-286 235 282 0
-286 274 -282 0
287 -236 282 0
287 -275 -282 0
-287 236 282 0
-287 275 -282 0
288 -237 282 0
288 -276 -282 0
-288 237 282 0
-288 276 -282 0
-289 249 0
289 -249 261 0
-289 -261 0
-290 248 0
290 -248 249 260 261 0
-290 249 -261 0
-290 -260 0
290 -248 -249 260 -261 0
-290 -249 261 0
291 -290 0
-291 289 290 0
291 -289 0
-292 247 0
292 -247 249 259 261 0
-292 249 -261 0
-292 -259 0
292 -247 -249 259 -261 0
-292 -249 261 0
293 248 260 -292 0
-293 292 0
-293 248 -260 0
-293 -248 260 0
293 -248 -260 -292 0
294 -293 0
-294 291 293 0
294 -291 0
295 -247 294 0
295 -259 -294 0
-295 247 294 0
-295 259 -294 0
296 -248 294 0
296 -260 -294 0
-296 248 294 0
-296 260 -294 0
297 -249 294 0
297 -261 -294 0
-297 249 294 0
-297 261 -294 0
298 -259 294 0
298 -247 -294 0
-298 259 294 0
-298 247 -294 0
299 -260 294 0
299 -248 -294 0
-299 260 294 0
-299 248 -294 0
300 -261 294 0
300 -249 -294 0
-300 261 294 0
-300 249 -294 0
301 273 -300 0
-301 300 0
-301 -273 0
-302 299 0
302 272 273 -299 300 0
-302 273 -300 0
302 272 -273 -299 -300 0
-302 -273 300 0
-302 -272 0
303 -302 0
-303 301 302 0
303 -301 0
-304 298 0
304 271 273 -298 300 0
-304 273 -300 0
304 271 -273 -298 -300 0
-304 -273 300 0
-304 -271 0
305 272 299 -304 0
-305 304 0
-305 272 -299 0
-305 -272 299 0
305 -272 -299 -304 0
306 -305 0
-306 303 305 0
306 -303 0
307 -298 306 0
307 -271 -306 0
-307 298 306 0
-307 271 -306 0
308 -299 306 0
308 -272 -306 0
-308 299 306 0
-308 272 -306 0
309 -300 306 0
309 -273 -306 0
-309 300 306 0
-309 273 -306 0
310 -271 306 0
310 -298 -306 0
-310 271 306 0
-310 298 -306 0
311 -272 306 0
311 -299 -306 0
-311 272 306 0
-311 299 -306 0
312 -273 306 0
312 -300 -306 0
-312 273 306 0
-312 300 -306 0
313 285 -312 0
-313 312 0
-313 -285 0
-314 311 0
314 284 285 -311 312 0
-314 285 -312 0
314 284 -285 -311 -312 0
-314 -285 312 0
-314 -284 0
315 -314 0
-315 313 314 0
315 -313 0
-316 310 0
316 283 285 -310 312 0
-316 285 -312 0
316 283 -285 -310 -312 0
-316 -285 312 0
-316 -283 0
317 284 311 -316 0
-317 316 0
-317 284 -311 0
-317 -284 311 0
317 -284 -311 -316 0
318 -317 0
-318 315 317 0
318 -315 0
319 -310 318 0
319 -283 -318 0
-319 310 318 0
-319 283 -318 0
320 -311 318 0
320 -284 -318 0
-320 311 318 0
-320 284 -318 0
321 -312 318 0
321 -285 -318 0
-321 312 318 0
-321 285 -318 0
322 -283 318 0
322 -310 -318 0
-322 283 318 0
-322 310 -318 0
323 -284 318 0
323 -311 -318 0
-323 284 318 0
-323 311 -318 0
324 -285 318 0
324 -312 -318 0
-324 285 318 0
-324 312 -318 0
-325 297 0
325 -297 309 0
-325 -309 0
-326 296 0
326 -296 297 308 309 0
-326 297 -309 0
-326 -308 0
326 -296 -297 308 -309 0
-326 -297 309 0
327 -326 0
-327 325 326 0
327 -325 0
-328 295 0
328 -295 297 307 309 0
-328 297 -309 0
-328 -307 0
328 -295 -297 307 -309 0
-328 -297 309 0
329 296 308 -328 0
-329 328 0
-329 296 -308 0
-329 -296 308 0
329 -296 -308 -328 0
330 -329 0
-330 327 329 0
330 -327 0
331 -295 330 0
331 -307 -330 0
-331 295 330 0
-331 307 -330 0
332 -296 330 0
332 -308 -330 0
-332 296 330 0
-332 308 -330 0
333 -297 330 0
333 -309 -330 0
-333 297 330 0
-333 309 -330 0
334 -307 330 0
334 -295 -330 0
-334 307 330 0
-334 295 -330 0
335 -308 330 0
335 -296 -330 0
-335 308 330 0
-335 296 -330 0
336 -309 330 0
336 -297 -330 0
-336 309 330 0
-336 297 -330 0
337 321 -336 0
-337 336 0
-337 -321 0
-338 335 0
338 320 321 -335 336 0
-338 321 -336 0
338 320 -321 -335 -336 0
-338 -321 336 0
-338 -320 0
339 -338 0
-339 337 338 0
339 -337 0
-340 334 0
340 319 321 -334 336 0
-340 321 -336 0
340 319 -321 -334 -336 0
-340 -321 336 0
-340 -319 0
341 320 335 -340 0
-341 340 0
-341 320 -335 0
-341 -320 335 0
341 -320 -335 -340 0
342 -341 0
-342 339 341 0
342 -339 0
343 -334 342 0
343 -319 -342 0
-343 334 342 0
-343 319 -342 0
344 -335 342 0
344 -320 -342 0
-344 335 342 0
-344 320 -342 0
345 -336 342 0
345 -321 -342 0
-345 336 342 0
-345 321 -342 0
346 -319 342 0
346 -334 -342 0
-346 319 342 0
-346 334 -342 0
347 -320 342 0
347 -335 -342 0
-347 320 342 0
-347 335 -342 0
348 -321 342 0
348 -336 -342 0
-348 321 342 0
-348 336 -342 0
-349 333 0
349 -333 345 0
-349 -345 0
-350 332 0
350 -332 333 344 345 0
-350 333 -345 0
-350 -344 0
350 -332 -333 344 -345 0
-350 -333 345 0
351 -350 0
-351 349 350 0
351 -349 0
-352 331 0
352 -331 333 343 345 0
-352 333 -345 0
-352 -343 0
352 -331 -333 343 -345 0
-352 -333 345 0
353 332 344 -352 0
-353 352 0
-353 332 -344 0
-353 -332 344 0
353 -332 -344 -352 0
354 -353 0
-354 351 353 0
354 -351 0
355 -331 354 0
355 -343 -354 0
-355 331 354 0
-355 343 -354 0
356 -332 354 0
356 -344 -354 0
-356 332 354 0
-356 344 -354 0
357 -333 354 0
357 -345 -354 0
-357 333 354 0
-357 345 -354 0
358 -343 354 0
358 -331 -354 0
-358 343 354 0
-358 331 -354 0
359 -344 354 0
359 -332 -354 0
-359 344 354 0
-359 332 -354 0
360 -345 354 0
360 -333 -354 0
-360 345 354 0
-360 333 -354 0
-361 0
-362 0
-363 0
-364 0
-365 0
-366 0
-367 0
-368 0
-369 0
-370 0
-371 0
-372 0
-373 0
-374 0
-375 0
-376 0
-377 0
-378 0
-379 0
-380 0
-381 0
-382 0
-383 0
-384 0
385 -363 0
-385 361 362 363 0
385 -362 0
385 -361 0
386 -366 0
-386 364 365 366 0
386 -365 0
386 -364 0
387 -369 0
-387 367 368 369 0
387 -368 0
387 -367 0
388 -372 0
-388 370 371 372 0
388 -371 0
388 -370 0
389 -375 0
-389 373 374 375 0
389 -374 0
389 -373 0
390 -378 0
-390 376 377 378 0
390 -377 0
390 -376 0
391 -381 0
-391 379 380 381 0
391 -380 0
391 -379 0
392 -384 0
-392 382 383 384 0
392 -383 0
392 -382 0
393 -392 0
-393 385 386 387 388 389 390 391 392 0
393 -391 0
393 -390 0
393 -389 0
393 -388 0
393 -387 0
393 -386 0
393 -385 0
393 0
